971, 0, 0, 37, 4
972, 0, 1, 64, 3
973, 0, 2, 96, 1
974, 0, 3, 41, 0
975, 0, 4, 60, 2
976, 1, 0, 95, 1
977, 1, 1, 55, 3
978, 1, 2, 67, 0
979, 1, 3, 44, 4
980, 1, 4, 74, 2
981, 2, 0, 44, 0
982, 2, 1, 58, 4
983, 2, 2, 48, 3
984, 2, 3, 37, 1
985, 2, 4, 83, 2
986, 3, 0, 81, 4
987, 3, 1, 46, 0
988, 3, 2, 48, 2
989, 3, 3, 70, 3
990, 3, 4, 52, 1
